Minimize
 obj: 0 X_0_1
Subject To
 out_0:
  + 1 X_0_1 + 1 X_0_2 + 1 X_0_3 + 1 X_0_4
  = 1
 in_0:
  + 1 X_1_0 + 1 X_2_0 + 1 X_3_0 + 1 X_4_0
  = 1
 out_1:
  + 1 X_1_0 + 1 X_1_2 + 1 X_1_3 + 1 X_1_4
  = 1
 in_1:
  + 1 X_0_1 + 1 X_2_1 + 1 X_3_1 + 1 X_4_1
  = 1
 out_2:
  + 1 X_2_0 + 1 X_2_1 + 1 X_2_3 + 1 X_2_4
  = 1
 in_2:
  + 1 X_0_2 + 1 X_1_2 + 1 X_3_2 + 1 X_4_2
  = 1
 out_3:
  + 1 X_3_0 + 1 X_3_1 + 1 X_3_2 + 1 X_3_4
  = 1
 in_3:
  + 1 X_0_3 + 1 X_1_3 + 1 X_2_3 + 1 X_4_3
  = 1
 out_4:
  + 1 X_4_0 + 1 X_4_1 + 1 X_4_2 + 1 X_4_3
  = 1
 in_4:
  + 1 X_0_4 + 1 X_1_4 + 1 X_2_4 + 1 X_3_4
  = 1
 mtz_1_2:
  + 1 U1 - 1 U2 + 4 X_1_2
  <= 3
 mtz_1_3:
  + 1 U1 - 1 U3 + 4 X_1_3
  <= 3
 mtz_1_4:
  + 1 U1 - 1 U4 + 4 X_1_4
  <= 3
 mtz_2_1:
  + 1 U2 - 1 U1 + 4 X_2_1
  <= 3
 mtz_2_3:
  + 1 U2 - 1 U3 + 4 X_2_3
  <= 3
 mtz_2_4:
  + 1 U2 - 1 U4 + 4 X_2_4
  <= 3
 mtz_3_1:
  + 1 U3 - 1 U1 + 4 X_3_1
  <= 3
 mtz_3_2:
  + 1 U3 - 1 U2 + 4 X_3_2
  <= 3
 mtz_3_4:
  + 1 U3 - 1 U4 + 4 X_3_4
  <= 3
 mtz_4_1:
  + 1 U4 - 1 U1 + 4 X_4_1
  <= 3
 mtz_4_2:
  + 1 U4 - 1 U2 + 4 X_4_2
  <= 3
 mtz_4_3:
  + 1 U4 - 1 U3 + 4 X_4_3
  <= 3
 obj1:
  + 199 X_0_1 + 701 X_0_2 + 871 X_0_3 + 273 X_0_4 + 199 X_1_0 + 504 X_1_2 + 684 X_1_3 + 257 X_1_4
  + 701 X_2_0 + 504 X_2_1 + 227 X_2_3 + 599 X_2_4 + 871 X_3_0 + 684 X_3_1 + 227 X_3_2 + 709 X_3_4
  + 273 X_4_0 + 257 X_4_1 + 599 X_4_2 + 709 X_4_3
  <= 1
 obj2:
  + 1068 X_0_1 + 749 X_0_2 + 410 X_0_3 + 694 X_0_4 + 1068 X_1_0 + 688 X_1_2 + 770 X_1_3 + 410 X_1_4
  + 749 X_2_0 + 688 X_2_1 + 755 X_2_3 + 359 X_2_4 + 410 X_3_0 + 770 X_3_1 + 755 X_3_2 + 508 X_3_4
  + 694 X_4_0 + 410 X_4_1 + 359 X_4_2 + 508 X_4_3
  <= 2
 obj3:
  + 543 X_0_1 + 454 X_0_2 + 466 X_0_3 + 875 X_0_4 + 543 X_1_0 + 324 X_1_2 + 266 X_1_3 + 662 X_1_4
  + 454 X_2_0 + 324 X_2_1 + 59 X_2_3 + 442 X_2_4 + 466 X_3_0 + 266 X_3_1 + 59 X_3_2 + 463 X_3_4
  + 875 X_4_0 + 662 X_4_1 + 442 X_4_2 + 463 X_4_3
  <= 3
Bounds
 1 <= U1 <= 4
 1 <= U2 <= 4
 1 <= U3 <= 4
 1 <= U4 <= 4
Binary
 X_0_1
 X_0_2
 X_0_3
 X_0_4
 X_1_0
 X_1_2
 X_1_3
 X_1_4
 X_2_0
 X_2_1
 X_2_3
 X_2_4
 X_3_0
 X_3_1
 X_3_2
 X_3_4
 X_4_0
 X_4_1
 X_4_2
 X_4_3
End
